
n_res = 6;
rcap = [21, 21, 19, 21, 554, 717];
rtype = [1, 1, 1, 1, 2, 2];
n_tasks = 50;
modes =  [{1, 2, 3}, {4, 5, 6}, {7, 8, 9}, {10, 11, 12}, {13, 14, 15}, {16, 17, 18}, {19, 20, 21}, {22, 23, 24}, {25, 26, 27}, {28, 29, 30}, {31, 32, 33}, {34, 35, 36}, {37, 38, 39}, {40, 41, 42}, {43, 44, 45}, {46, 47, 48}, {49, 50, 51}, {52, 53, 54}, {55, 56, 57}, {58, 59, 60}, {61, 62, 63}, {64, 65, 66}, {67, 68, 69}, {70, 71, 72}, {73, 74, 75}, {76, 77, 78}, {79, 80, 81}, {82, 83, 84}, {85, 86, 87}, {88, 89, 90}, {91, 92, 93}, {94, 95, 96}, {97, 98, 99}, {100, 101, 102}, {103, 104, 105}, {106, 107, 108}, {109, 110, 111}, {112, 113, 114}, {115, 116, 117}, {118, 119, 120}, {121, 122, 123}, {124, 125, 126}, {127, 128, 129}, {130, 131, 132}, {133, 134, 135}, {136, 137, 138}, {139, 140, 141}, {142, 143, 144}, {145, 146, 147}, {148, 149, 150}];
succ =  [{30, 12, 6, 5}, {29, 24, 23, 22, 18, 16, 15, 14, 13}, {29, 23, 22, 20, 18, 16, 14, 13}, {24, 21, 20, 19, 17, 16, 13, 12}, {29, 24, 23, 22, 18, 17, 16, 13}, {32, 29, 24, 23, 22, 18, 16, 14}, {41, 32, 29, 24, 18, 16, 14}, {41, 39, 30, 29, 28, 24, 23, 20, 18, 16}, {41, 31, 29, 25, 24, 23, 22, 14}, {41, 29, 25, 24, 23, 18, 14}, {26, 25, 24, 23, 18, 14}, {41, 39, 32, 28, 27, 25, 23, 18}, {50, 41, 39, 34, 33, 32, 31, 28, 27, 25}, {50, 40, 38, 28, 21, 17}, {50, 40, 39, 33, 31, 28, 27, 25}, {50, 48, 40, 34, 33, 31, 27, 25}, {39, 37, 34, 33, 27}, {49, 47, 46, 40, 37, 36, 34, 33, 31}, {49, 47, 46, 38, 37, 36, 34, 33, 31}, {48, 47, 46, 37, 36, 34, 33}, {48, 33, 27}, {49, 47, 46, 45, 38, 33}, {50, 48, 47, 46, 45, 44, 35}, {50, 49, 47, 45, 36, 35}, {46, 38, 37, 36, 35}, {47, 46, 45, 35, 34}, {49, 47, 46, 45, 42, 36}, {48, 46, 44, 35}, {48, 47, 44, 35}, {49, 43, 38, 36}, {45, 44, 35}, {48, 46, 43, 42}, {44, 35}, {44, 43, 42}, {43, 42}, {44}, {45}, {42}, {48}, {43}, {42}, {}, {}, {}, {}, {}, {}, {}, {}, {}];
n_opt = 150;
dur = [17, 18, 25, 2, 21, 29, 9, 24, 28, 13, 14, 25, 23, 24, 25, 5, 16, 19, 10, 20, 24, 5, 9, 20, 2, 19, 24, 6, 8, 21, 6, 9, 23, 9, 14, 24, 9, 21, 28, 10, 13, 25, 24, 25, 29, 5, 22, 28, 11, 13, 29, 6, 9, 28, 3, 7, 11, 5, 17, 21, 11, 19, 29, 1, 14, 17, 27, 28, 29, 11, 17, 30, 1, 10, 24, 2, 6, 15, 3, 24, 28, 12, 23, 27, 11, 19, 20, 9, 11, 30, 4, 10, 23, 15, 26, 28, 9, 24, 27, 15, 26, 29, 6, 25, 30, 19, 20, 27, 2, 5, 16, 20, 21, 22, 3, 8, 28, 6, 20, 21, 1, 2, 28, 7, 15, 22, 7, 20, 29, 8, 20, 26, 5, 27, 28, 17, 19, 28, 3, 19, 30, 6, 17, 27, 6, 7, 17, 7, 11, 28];
rreq = [|2, 1, 1, 4, 3, 3, 4, 4, 4, 5, 2, 1, 5, 4, 2, 4, 3, 3, 4, 4, 4, 3, 3, 3, 5, 3, 3, 4, 3, 2, 1, 1, 1, 5, 4, 4, 3, 2, 2, 2, 2, 2, 2, 2, 1, 5, 4, 4, 2, 2, 2, 5, 4, 4, 5, 5, 5, 2, 2, 1, 3, 3, 3, 4, 3, 3, 3, 3, 2, 3, 2, 2, 3, 2, 1, 3, 2, 2, 3, 2, 1, 4, 2, 2, 3, 2, 2, 3, 3, 2, 4, 3, 2, 3, 3, 3, 5, 5, 5, 3, 3, 1, 3, 2, 1, 3, 2, 1, 2, 2, 2, 3, 3, 3, 4, 2, 2, 4, 2, 2, 2, 2, 1, 3, 3, 3, 3, 2, 2, 1, 1, 1, 4, 3, 3, 5, 3, 2, 4, 3, 3, 4, 4, 4, 2, 1, 1, 4, 3, 2
 |5, 3, 2, 4, 4, 4, 3, 2, 2, 2, 2, 2, 5, 5, 5, 2, 2, 2, 4, 4, 3, 2, 2, 2, 1, 1, 1, 4, 3, 3, 4, 2, 1, 2, 2, 1, 4, 4, 2, 3, 3, 2, 4, 3, 2, 5, 4, 3, 4, 4, 4, 3, 2, 2, 4, 3, 2, 5, 4, 3, 4, 4, 4, 4, 3, 3, 4, 3, 2, 5, 2, 2, 3, 2, 2, 4, 3, 3, 3, 3, 3, 5, 3, 3, 2, 2, 2, 5, 4, 4, 4, 3, 2, 1, 1, 1, 3, 3, 3, 4, 3, 3, 5, 3, 2, 4, 3, 3, 5, 5, 5, 4, 3, 2, 3, 3, 1, 2, 1, 1, 4, 2, 2, 5, 3, 3, 2, 2, 1, 4, 3, 2, 3, 2, 2, 4, 3, 3, 4, 4, 4, 3, 2, 2, 5, 4, 3, 4, 2, 2
 |4, 3, 3, 4, 3, 2, 1, 1, 1, 3, 2, 1, 1, 1, 1, 4, 3, 3, 4, 3, 3, 2, 2, 2, 4, 3, 2, 2, 2, 2, 3, 3, 2, 4, 3, 3, 2, 1, 1, 4, 3, 3, 1, 1, 1, 3, 3, 2, 5, 5, 5, 5, 4, 4, 5, 3, 3, 4, 3, 3, 1, 1, 1, 3, 3, 3, 2, 2, 2, 5, 4, 3, 4, 4, 2, 4, 3, 1, 5, 4, 4, 5, 4, 3, 2, 1, 1, 2, 1, 1, 4, 3, 3, 4, 3, 2, 3, 3, 2, 3, 3, 2, 3, 3, 1, 5, 4, 4, 2, 1, 1, 3, 3, 3, 2, 2, 2, 1, 1, 1, 2, 2, 2, 5, 4, 3, 5, 4, 4, 4, 3, 3, 4, 2, 2, 4, 4, 3, 4, 3, 3, 5, 3, 1, 3, 3, 3, 5, 4, 2
 |4, 3, 3, 5, 4, 4, 3, 3, 1, 4, 3, 3, 4, 3, 1, 1, 1, 1, 2, 1, 1, 5, 3, 2, 3, 2, 2, 1, 1, 1, 1, 1, 1, 4, 3, 3, 4, 2, 2, 4, 3, 2, 5, 4, 4, 4, 3, 2, 2, 2, 2, 1, 1, 1, 2, 2, 2, 2, 2, 2, 4, 3, 2, 4, 4, 4, 4, 3, 3, 4, 3, 3, 3, 2, 2, 3, 1, 1, 3, 2, 2, 3, 2, 2, 2, 2, 1, 3, 3, 3, 5, 3, 1, 4, 3, 1, 4, 4, 4, 3, 2, 2, 2, 2, 2, 2, 2, 2, 4, 3, 2, 1, 1, 1, 5, 5, 5, 1, 1, 1, 3, 2, 2, 3, 3, 1, 3, 3, 2, 3, 2, 1, 4, 4, 4, 2, 1, 1, 4, 2, 2, 5, 3, 3, 4, 2, 2, 3, 2, 2
 |25, 18, 12, 15, 13, 8, 21, 13, 9, 29, 15, 14, 19, 11, 7, 30, 28, 26, 5, 5, 4, 8, 8, 8, 18, 17, 15, 19, 14, 4, 18, 11, 5, 14, 13, 12, 19, 12, 6, 11, 10, 8, 8, 7, 7, 8, 8, 6, 23, 20, 18, 11, 8, 6, 10, 8, 2, 10, 8, 4, 23, 22, 21, 25, 24, 24, 13, 13, 13, 28, 22, 15, 7, 5, 5, 28, 16, 10, 3, 2, 2, 11, 9, 7, 11, 9, 7, 22, 16, 10, 12, 9, 3, 12, 6, 5, 21, 19, 16, 16, 13, 4, 22, 20, 18, 26, 20, 15, 16, 15, 5, 21, 18, 9, 21, 20, 20, 21, 17, 16, 25, 20, 8, 7, 3, 2, 3, 3, 3, 13, 10, 6, 17, 13, 7, 27, 18, 6, 12, 11, 9, 11, 6, 3, 14, 12, 10, 9, 7, 7
 |20, 10, 9, 21, 16, 15, 2, 2, 2, 17, 13, 10, 17, 15, 13, 27, 25, 24, 22, 22, 22, 25, 22, 20, 23, 19, 16, 22, 21, 20, 19, 15, 13, 16, 14, 6, 28, 28, 28, 11, 10, 9, 20, 14, 8, 22, 19, 18, 17, 14, 13, 21, 15, 13, 22, 13, 11, 20, 20, 19, 5, 4, 4, 10, 4, 3, 26, 22, 20, 27, 17, 7, 28, 23, 23, 14, 12, 10, 17, 17, 17, 16, 13, 8, 22, 15, 8, 12, 9, 8, 23, 22, 19, 14, 11, 8, 26, 18, 17, 26, 26, 25, 26, 20, 9, 20, 16, 7, 10, 8, 7, 14, 10, 9, 13, 12, 11, 19, 17, 14, 6, 6, 5, 22, 16, 13, 14, 10, 7, 21, 16, 13, 24, 23, 22, 28, 24, 22, 22, 22, 14, 10, 9, 8, 16, 15, 15, 7, 5, 4|];